c FILE: DSJC125.5
c
c SOURCE: David Johnson (dsj@research.att.com)
c
c DESCRIPTION: Random graph used in the paper
c              "Optimization by Simulated Annealing: An
c               Experimental Evaluation; Part II, Graph
c               Coloring and Number Partitioning" by
c              David S. Johnson, Cecilia R. Aragon, 
c              Lyle A. McGeoch and Catherine Schevon
c              Operations Research, 39, 378-406 (1991)
c
p edge 125 7782
e 2 1
e 3 1
e 4 1
e 4 2
e 4 3
e 5 1
e 5 2
e 5 3
e 6 1
e 6 2
e 6 3
e 6 4
e 7 2
e 7 3
e 7 6
e 8 3
e 8 5
e 9 5
e 10 1
e 10 2
e 10 3
e 10 4
e 10 6
e 10 7
e 10 8
e 11 1
e 11 2
e 11 5
e 11 6
e 11 8
e 11 9
e 12 1
e 12 4
e 12 5
e 12 7
e 12 8
e 12 9
e 12 11
e 13 1
e 13 2
e 13 3
e 13 5
e 13 8
e 13 9
e 13 11
e 13 12
e 14 2
e 14 3
e 14 4
e 14 7
e 14 8
e 14 10
e 15 1
e 15 2
e 15 5
e 15 8
e 15 10
e 15 12
e 15 13
e 16 1
e 16 4
e 16 5
e 16 8
e 16 9
e 16 10
e 16 13
e 17 1
e 17 3
e 17 4
e 17 5
e 17 6
e 17 8
e 17 9
e 17 10
e 17 12
e 17 13
e 17 15
e 17 16
e 18 1
e 18 2
e 18 3
e 18 4
e 18 6
e 18 7
e 18 8
